p tw 128 21121 2 
1 66 
1 67 
1 69 
1 71 
1 73 
1 76 
1 78 
1 79 
1 81 
1 83 
1 86 
1 87 
1 89 
1 92 
1 93 
1 95 
1 97 
1 99 
1 102 
1 104 
1 105 
1 107 
1 109 
1 111 
1 114 
1 115 
1 117 
1 119 
1 121 
1 123 
1 125 
1 127 
2 65 
2 68 
2 70 
2 72 
2 74 
2 75 
2 77 
2 80 
2 82 
2 84 
2 85 
2 88 
2 90 
2 91 
2 94 
2 96 
2 98 
2 100 
2 101 
2 103 
2 106 
2 108 
2 110 
2 112 
2 113 
2 116 
2 118 
2 120 
2 122 
2 124 
2 126 
2 128 
3 4 
3 66 
3 68 
3 70 
3 71 
3 73 
3 76 
3 78 
3 80 
3 82 
3 84 
3 86 
3 88 
3 89 
3 92 
3 94 
3 95 
3 97 
3 100 
3 102 
3 104 
3 106 
3 107 
3 110 
3 112 
3 114 
3 116 
3 118 
3 120 
3 121 
3 124 
3 125 
3 128 
4 65 
4 67 
4 69 
4 72 
4 74 
4 75 
4 77 
4 79 
4 81 
4 83 
4 85 
4 87 
4 90 
4 91 
4 93 
4 96 
4 98 
4 99 
4 101 
4 103 
4 105 
4 108 
4 109 
4 111 
4 113 
4 115 
4 117 
4 119 
4 122 
4 123 
4 126 
4 127 
5 6 
5 65 
5 67 
5 69 
5 72 
5 74 
5 76 
5 77 
5 80 
5 81 
5 83 
5 85 
5 88 
5 89 
5 92 
5 94 
5 96 
5 97 
5 99 
5 102 
5 103 
5 105 
5 108 
5 110 
5 112 
5 114 
5 115 
5 118 
5 119 
5 121 
5 124 
5 125 
5 128 
6 66 
6 68 
6 70 
6 71 
6 73 
6 75 
6 78 
6 79 
6 82 
6 84 
6 86 
6 87 
6 90 
6 91 
6 93 
6 95 
6 98 
6 100 
6 101 
6 104 
6 106 
6 107 
6 109 
6 111 
6 113 
6 116 
6 117 
6 120 
6 122 
6 123 
6 126 
6 127 
7 8 
7 65 
7 67 
7 70 
7 71 
7 74 
7 76 
7 77 
7 79 
7 82 
7 84 
7 85 
7 87 
7 89 
7 92 
7 94 
7 96 
7 98 
7 99 
7 102 
7 103 
7 106 
7 107 
7 109 
7 111 
7 114 
7 116 
7 117 
7 120 
7 122 
7 123 
7 125 
7 128 
8 66 
8 68 
8 69 
8 72 
8 73 
8 75 
8 78 
8 80 
8 81 
8 83 
8 86 
8 88 
8 90 
8 91 
8 93 
8 95 
8 97 
8 100 
8 101 
8 104 
8 105 
8 108 
8 110 
8 112 
8 113 
8 115 
8 118 
8 119 
8 121 
8 124 
8 126 
8 127 
9 10 
9 66 
9 67 
9 70 
9 71 
9 74 
9 75 
9 78 
9 79 
9 81 
9 84 
9 86 
9 88 
9 89 
9 91 
9 94 
9 96 
9 98 
9 99 
9 101 
9 104 
9 105 
9 107 
9 110 
9 111 
9 113 
9 115 
9 118 
9 119 
9 122 
9 124 
9 125 
9 128 
10 65 
10 68 
10 69 
10 72 
10 73 
10 76 
10 77 
10 80 
10 82 
10 83 
10 85 
10 87 
10 90 
10 92 
10 93 
10 95 
10 97 
10 100 
10 102 
10 103 
10 106 
10 108 
10 109 
10 112 
10 114 
10 116 
10 117 
10 120 
10 121 
10 123 
10 126 
10 127 
11 12 
11 66 
11 68 
11 70 
11 72 
11 74 
11 76 
11 78 
11 80 
11 81 
11 83 
11 86 
11 88 
11 90 
11 92 
11 94 
11 96 
11 98 
11 99 
11 102 
11 104 
11 105 
11 108 
11 110 
11 111 
11 114 
11 116 
11 117 
11 120 
11 122 
11 123 
11 126 
11 127 
12 65 
12 67 
12 69 
12 71 
12 73 
12 75 
12 77 
12 79 
12 82 
12 84 
12 85 
12 87 
12 89 
12 91 
12 93 
12 95 
12 97 
12 100 
12 101 
12 103 
12 106 
12 107 
12 109 
12 112 
12 113 
12 115 
12 118 
12 119 
12 121 
12 124 
12 125 
12 128 
13 14 
13 65 
13 68 
13 70 
13 71 
13 73 
13 76 
13 77 
13 79 
13 81 
13 84 
13 85 
13 88 
13 90 
13 92 
13 93 
13 95 
13 98 
13 100 
13 102 
13 103 
13 105 
13 107 
13 110 
13 111 
13 114 
13 115 
13 118 
13 119 
13 122 
13 124 
13 126 
13 127 
14 66 
14 67 
14 69 
14 72 
14 74 
14 75 
14 78 
14 80 
14 82 
14 83 
14 86 
14 87 
14 89 
14 91 
14 94 
14 96 
14 97 
14 99 
14 101 
14 104 
14 106 
14 108 
14 109 
14 112 
14 113 
14 116 
14 117 
14 120 
14 121 
14 123 
14 125 
14 128 
15 16 
15 65 
15 68 
15 70 
15 72 
15 73 
15 76 
15 78 
15 80 
15 81 
15 84 
15 85 
15 87 
15 90 
15 92 
15 94 
15 96 
15 98 
15 100 
15 101 
15 104 
15 105 
15 107 
15 109 
15 112 
15 113 
15 115 
15 117 
15 119 
15 121 
15 123 
15 125 
15 128 
16 66 
16 67 
16 69 
16 71 
16 74 
16 75 
16 77 
16 79 
16 82 
16 83 
16 86 
16 88 
16 89 
16 91 
16 93 
16 95 
16 97 
16 99 
16 102 
16 103 
16 106 
16 108 
16 110 
16 111 
16 114 
16 116 
16 118 
16 120 
16 122 
16 124 
16 126 
16 127 
17 18 
17 66 
17 67 
17 70 
17 71 
17 73 
17 76 
17 77 
17 80 
17 81 
17 84 
17 85 
17 87 
17 90 
17 91 
17 93 
17 96 
17 97 
17 99 
17 101 
17 104 
17 106 
17 108 
17 110 
17 112 
17 114 
17 116 
17 118 
17 119 
17 122 
17 123 
17 125 
17 127 
18 65 
18 68 
18 69 
18 72 
18 74 
18 75 
18 78 
18 79 
18 82 
18 83 
18 86 
18 88 
18 89 
18 92 
18 94 
18 95 
18 98 
18 100 
18 102 
18 103 
18 105 
18 107 
18 109 
18 111 
18 113 
18 115 
18 117 
18 120 
18 121 
18 124 
18 126 
18 128 
19 20 
19 65 
19 67 
19 69 
19 71 
19 74 
19 75 
19 78 
19 80 
19 81 
19 84 
19 85 
19 87 
19 90 
19 91 
19 94 
19 95 
19 98 
19 100 
19 102 
19 104 
19 105 
19 108 
19 109 
19 111 
19 114 
19 116 
19 118 
19 120 
19 121 
19 124 
19 125 
19 127 
20 66 
20 68 
20 70 
20 72 
20 73 
20 76 
20 77 
20 79 
20 82 
20 83 
20 86 
20 88 
20 89 
20 92 
20 93 
20 96 
20 97 
20 99 
20 101 
20 103 
20 106 
20 107 
20 110 
20 112 
20 113 
20 115 
20 117 
20 119 
20 122 
20 123 
20 126 
20 128 
21 22 
21 65 
21 68 
21 70 
21 71 
21 74 
21 76 
21 78 
21 80 
21 82 
21 83 
21 85 
21 87 
21 89 
21 92 
21 94 
21 95 
21 97 
21 99 
21 101 
21 104 
21 106 
21 108 
21 109 
21 111 
21 113 
21 115 
21 118 
21 119 
21 122 
21 124 
21 126 
21 127 
22 66 
22 67 
22 69 
22 72 
22 73 
22 75 
22 77 
22 79 
22 81 
22 84 
22 86 
22 88 
22 90 
22 91 
22 93 
22 96 
22 98 
22 100 
22 102 
22 103 
22 105 
22 107 
22 110 
22 112 
22 114 
22 116 
22 117 
22 120 
22 121 
22 123 
22 125 
22 128 
23 24 
23 66 
23 67 
23 70 
23 71 
23 73 
23 75 
23 78 
23 79 
23 81 
23 84 
23 85 
23 88 
23 90 
23 92 
23 94 
23 96 
23 97 
23 99 
23 102 
23 103 
23 106 
23 108 
23 109 
23 112 
23 113 
23 115 
23 117 
23 120 
23 121 
23 124 
23 126 
23 127 
24 65 
24 68 
24 69 
24 72 
24 74 
24 76 
24 77 
24 80 
24 82 
24 83 
24 86 
24 87 
24 89 
24 91 
24 93 
24 95 
24 98 
24 100 
24 101 
24 104 
24 105 
24 107 
24 110 
24 111 
24 114 
24 116 
24 118 
24 119 
24 122 
24 123 
24 125 
24 128 
25 26 
25 66 
25 68 
25 69 
25 72 
25 73 
25 75 
25 78 
25 79 
25 82 
25 84 
25 85 
25 87 
25 89 
25 92 
25 94 
25 95 
25 98 
25 99 
25 101 
25 103 
25 105 
25 108 
25 110 
25 112 
25 114 
25 116 
25 117 
25 119 
25 122 
25 124 
25 125 
25 127 
26 65 
26 67 
26 70 
26 71 
26 74 
26 76 
26 77 
26 80 
26 81 
26 83 
26 86 
26 88 
26 90 
26 91 
26 93 
26 96 
26 97 
26 100 
26 102 
26 104 
26 106 
26 107 
26 109 
26 111 
26 113 
26 115 
26 118 
26 120 
26 121 
26 123 
26 126 
26 128 
27 28 
27 66 
27 68 
27 70 
27 71 
27 74 
27 75 
27 78 
27 80 
27 81 
27 83 
27 85 
27 87 
27 89 
27 91 
27 93 
27 96 
27 97 
27 100 
27 102 
27 103 
27 105 
27 107 
27 109 
27 112 
27 114 
27 116 
27 117 
27 119 
27 122 
27 124 
27 126 
27 128 
28 65 
28 67 
28 69 
28 72 
28 73 
28 76 
28 77 
28 79 
28 82 
28 84 
28 86 
28 88 
28 90 
28 92 
28 94 
28 95 
28 98 
28 99 
28 101 
28 104 
28 106 
28 108 
28 110 
28 111 
28 113 
28 115 
28 118 
28 120 
28 121 
28 123 
28 125 
28 127 
29 30 
29 66 
29 67 
29 70 
29 72 
29 74 
29 76 
29 77 
29 80 
29 82 
29 84 
29 85 
29 88 
29 89 
29 91 
29 93 
29 95 
29 98 
29 99 
29 101 
29 104 
29 105 
29 107 
29 109 
29 112 
29 114 
29 115 
29 117 
29 120 
29 121 
29 124 
29 126 
29 127 
30 65 
30 68 
30 69 
30 71 
30 73 
30 75 
30 78 
30 79 
30 81 
30 83 
30 86 
30 87 
30 90 
30 92 
30 94 
30 96 
30 97 
30 100 
30 102 
30 103 
30 106 
30 108 
30 110 
30 111 
30 113 
30 116 
30 118 
30 119 
30 122 
30 123 
30 125 
30 128 
31 32 
31 66 
31 68 
31 70 
31 71 
31 74 
31 75 
31 77 
31 79 
31 82 
31 83 
31 85 
31 88 
31 90 
31 92 
31 93 
31 95 
31 98 
31 99 
31 102 
31 104 
31 105 
31 108 
31 109 
31 112 
31 113 
31 116 
31 118 
31 119 
31 121 
31 123 
31 125 
31 128 
32 65 
32 67 
32 69 
32 72 
32 73 
32 76 
32 78 
32 80 
32 81 
32 84 
32 86 
32 87 
32 89 
32 91 
32 94 
32 96 
32 97 
32 100 
32 101 
32 103 
32 106 
32 107 
32 110 
32 111 
32 114 
32 115 
32 117 
32 120 
32 122 
32 124 
32 126 
32 127 
33 34 
33 65 
33 68 
33 69 
33 71 
33 74 
33 76 
33 77 
33 79 
33 82 
33 84 
33 86 
33 87 
33 90 
33 91 
33 94 
33 96 
33 97 
33 99 
33 102 
33 104 
33 105 
33 107 
33 110 
33 112 
33 113 
33 116 
33 117 
33 119 
33 121 
33 124 
33 126 
33 127 
34 66 
34 67 
34 70 
34 72 
34 73 
34 75 
34 78 
34 80 
34 81 
34 83 
34 85 
34 88 
34 89 
34 92 
34 93 
34 95 
34 98 
34 100 
34 101 
34 103 
34 106 
34 108 
34 109 
34 111 
34 114 
34 115 
34 118 
34 120 
34 122 
34 123 
34 125 
34 128 
35 36 
35 66 
35 67 
35 70 
35 71 
35 74 
35 75 
35 77 
35 80 
35 82 
35 84 
35 86 
35 87 
35 90 
35 92 
35 94 
35 95 
35 97 
35 100 
35 101 
35 103 
35 105 
35 108 
35 110 
35 111 
35 114 
35 115 
35 117 
35 119 
35 121 
35 123 
35 126 
35 128 
36 65 
36 68 
36 69 
36 72 
36 73 
36 76 
36 78 
36 79 
36 81 
36 83 
36 85 
36 88 
36 89 
36 91 
36 93 
36 96 
36 98 
36 99 
36 102 
36 104 
36 106 
36 107 
36 109 
36 112 
36 113 
36 116 
36 118 
36 120 
36 122 
36 124 
36 125 
36 127 
37 38 
37 65 
37 68 
37 69 
37 71 
37 74 
37 75 
37 78 
37 80 
37 82 
37 84 
37 86 
37 88 
37 90 
37 92 
37 93 
37 96 
37 97 
37 99 
37 101 
37 103 
37 105 
37 107 
37 109 
37 112 
37 114 
37 115 
37 118 
37 120 
37 122 
37 123 
37 125 
37 127 
38 66 
38 67 
38 70 
38 72 
38 73 
38 76 
38 77 
38 79 
38 81 
38 83 
38 85 
38 87 
38 89 
38 91 
38 94 
38 95 
38 98 
38 100 
38 102 
38 104 
38 106 
38 108 
38 110 
38 111 
38 113 
38 116 
38 117 
38 119 
38 121 
38 124 
38 126 
38 128 
39 40 
39 66 
39 68 
39 70 
39 72 
39 73 
39 75 
39 77 
39 80 
39 82 
39 83 
39 86 
39 87 
39 90 
39 91 
39 94 
39 96 
39 98 
39 99 
39 102 
39 103 
39 106 
39 107 
39 109 
39 111 
39 114 
39 115 
39 118 
39 119 
39 121 
39 124 
39 125 
39 127 
40 65 
40 67 
40 69 
40 71 
40 74 
40 76 
40 78 
40 79 
40 81 
40 84 
40 85 
40 88 
40 89 
40 92 
40 93 
40 95 
40 97 
40 100 
40 101 
40 104 
40 105 
40 108 
40 110 
40 112 
40 113 
40 116 
40 117 
40 120 
40 122 
40 123 
40 126 
40 128 
41 42 
41 65 
41 68 
41 70 
41 71 
41 74 
41 76 
41 78 
41 79 
41 81 
41 83 
41 86 
41 87 
41 90 
41 91 
41 93 
41 95 
41 98 
41 99 
41 101 
41 103 
41 106 
41 108 
41 110 
41 112 
41 114 
41 115 
41 117 
41 120 
41 121 
41 124 
41 125 
41 128 
42 66 
42 67 
42 69 
42 72 
42 73 
42 75 
42 77 
42 80 
42 82 
42 84 
42 85 
42 88 
42 89 
42 92 
42 94 
42 96 
42 97 
42 100 
42 102 
42 104 
42 105 
42 107 
42 109 
42 111 
42 113 
42 116 
42 118 
42 119 
42 122 
42 123 
42 126 
42 127 
43 44 
43 65 
43 67 
43 70 
43 72 
43 74 
43 75 
43 78 
43 80 
43 81 
43 84 
43 86 
43 87 
43 89 
43 92 
43 93 
43 95 
43 98 
43 99 
43 102 
43 103 
43 106 
43 107 
43 110 
43 112 
43 113 
43 116 
43 118 
43 119 
43 121 
43 123 
43 126 
43 127 
44 66 
44 68 
44 69 
44 71 
44 73 
44 76 
44 77 
44 79 
44 82 
44 83 
44 85 
44 88 
44 90 
44 91 
44 94 
44 96 
44 97 
44 100 
44 101 
44 104 
44 105 
44 108 
44 109 
44 111 
44 114 
44 115 
44 117 
44 120 
44 122 
44 124 
44 125 
44 128 
45 46 
45 65 
45 67 
45 69 
45 71 
45 73 
45 75 
45 78 
45 80 
45 82 
45 83 
45 85 
45 88 
45 90 
45 92 
45 93 
45 96 
45 98 
45 99 
45 101 
45 104 
45 106 
45 107 
45 110 
45 111 
45 114 
45 116 
45 117 
45 119 
45 121 
45 124 
45 126 
45 128 
46 66 
46 68 
46 70 
46 72 
46 74 
46 76 
46 77 
46 79 
46 81 
46 84 
46 86 
46 87 
46 89 
46 91 
46 94 
46 95 
46 97 
46 100 
46 102 
46 103 
46 105 
46 108 
46 109 
46 112 
46 113 
46 115 
46 118 
46 120 
46 122 
46 123 
46 125 
46 127 
47 48 
47 65 
47 68 
47 70 
47 72 
47 74 
47 75 
47 77 
47 79 
47 81 
47 84 
47 86 
47 88 
47 89 
47 92 
47 93 
47 96 
47 97 
47 100 
47 101 
47 104 
47 106 
47 108 
47 109 
47 111 
47 114 
47 116 
47 117 
47 119 
47 121 
47 124 
47 125 
47 127 
48 66 
48 67 
48 69 
48 71 
48 73 
48 76 
48 78 
48 80 
48 82 
48 83 
48 85 
48 87 
48 90 
48 91 
48 94 
48 95 
48 98 
48 99 
48 102 
48 103 
48 105 
48 107 
48 110 
48 112 
48 113 
48 115 
48 118 
48 120 
48 122 
48 123 
48 126 
48 128 
49 50 
49 66 
49 68 
49 69 
49 72 
49 74 
49 75 
49 77 
49 80 
49 81 
49 84 
49 85 
49 87 
49 90 
49 92 
49 93 
49 95 
49 97 
49 99 
49 102 
49 104 
49 106 
49 107 
49 110 
49 111 
49 113 
49 115 
49 117 
49 120 
49 122 
49 124 
49 125 
49 128 
50 65 
50 67 
50 70 
50 71 
50 73 
50 76 
50 78 
50 79 
50 82 
50 83 
50 86 
50 88 
50 89 
50 91 
50 94 
50 96 
50 98 
50 100 
50 101 
50 103 
50 105 
50 108 
50 109 
50 112 
50 114 
50 116 
50 118 
50 119 
50 121 
50 123 
50 126 
50 127 
51 52 
51 66 
51 68 
51 69 
51 71 
51 74 
51 76 
51 78 
51 80 
51 82 
51 84 
51 85 
51 88 
51 89 
51 91 
51 93 
51 96 
51 98 
51 100 
51 102 
51 103 
51 106 
51 108 
51 110 
51 111 
51 113 
51 115 
51 117 
51 119 
51 121 
51 123 
51 125 
51 127 
52 65 
52 67 
52 70 
52 72 
52 73 
52 75 
52 77 
52 79 
52 81 
52 83 
52 86 
52 87 
52 90 
52 92 
52 94 
52 95 
52 97 
52 99 
52 101 
52 104 
52 105 
52 107 
52 109 
52 112 
52 114 
52 116 
52 118 
52 120 
52 122 
52 124 
52 126 
52 128 
53 54 
53 65 
53 68 
53 69 
53 71 
53 73 
53 75 
53 77 
53 80 
53 81 
53 84 
53 86 
53 88 
53 89 
53 91 
53 94 
53 95 
53 98 
53 99 
53 102 
53 104 
53 106 
53 108 
53 109 
53 112 
53 114 
53 115 
53 117 
53 119 
53 122 
53 123 
53 126 
53 128 
54 66 
54 67 
54 70 
54 72 
54 74 
54 76 
54 78 
54 79 
54 82 
54 83 
54 85 
54 87 
54 90 
54 92 
54 93 
54 96 
54 97 
54 100 
54 101 
54 103 
54 105 
54 107 
54 110 
54 111 
54 113 
54 116 
54 118 
54 120 
54 121 
54 124 
54 125 
54 127 
55 56 
55 65 
55 67 
55 70 
55 71 
55 73 
55 75 
55 77 
55 80 
55 82 
55 83 
55 86 
55 87 
55 89 
55 92 
55 93 
55 96 
55 98 
55 100 
55 102 
55 104 
55 105 
55 108 
55 110 
55 112 
55 113 
55 115 
55 117 
55 120 
55 122 
55 124 
55 125 
55 127 
56 66 
56 68 
56 69 
56 72 
56 74 
56 76 
56 78 
56 79 
56 81 
56 84 
56 85 
56 88 
56 90 
56 91 
56 94 
56 95 
56 97 
56 99 
56 101 
56 103 
56 106 
56 107 
56 109 
56 111 
56 114 
56 116 
56 118 
56 119 
56 121 
56 123 
56 126 
56 128 
57 58 
57 66 
57 67 
57 69 
57 71 
57 74 
57 76 
57 77 
57 80 
57 81 
57 83 
57 86 
57 88 
57 90 
57 92 
57 94 
57 95 
57 98 
57 100 
57 101 
57 103 
57 106 
57 107 
57 109 
57 112 
57 113 
57 116 
57 117 
57 119 
57 122 
57 124 
57 125 
57 127 
58 65 
58 68 
58 70 
58 72 
58 73 
58 75 
58 78 
58 79 
58 82 
58 84 
58 85 
58 87 
58 89 
58 91 
58 93 
58 96 
58 97 
58 99 
58 102 
58 104 
58 105 
58 108 
58 110 
58 111 
58 114 
58 115 
58 118 
58 120 
58 121 
58 123 
58 126 
58 128 
59 60 
59 66 
59 67 
59 69 
59 72 
59 74 
59 76 
59 78 
59 79 
59 82 
59 84 
59 86 
59 87 
59 90 
59 92 
59 93 
59 96 
59 98 
59 100 
59 102 
59 104 
59 106 
59 108 
59 109 
59 112 
59 114 
59 115 
59 118 
59 119 
59 122 
59 124 
59 126 
59 128 
60 65 
60 68 
60 70 
60 71 
60 73 
60 75 
60 77 
60 80 
60 81 
60 83 
60 85 
60 88 
60 89 
60 91 
60 94 
60 95 
60 97 
60 99 
60 101 
60 103 
60 105 
60 107 
60 110 
60 111 
60 113 
60 116 
60 117 
60 120 
60 121 
60 123 
60 125 
60 127 
61 62 
61 66 
61 68 
61 69 
61 71 
61 74 
61 75 
61 77 
61 79 
61 81 
61 83 
61 85 
61 87 
61 89 
61 92 
61 94 
61 96 
61 98 
61 100 
61 101 
61 104 
61 106 
61 107 
61 110 
61 112 
61 114 
61 115 
61 118 
61 120 
61 121 
61 123 
61 126 
61 127 
62 65 
62 67 
62 70 
62 72 
62 73 
62 76 
62 78 
62 80 
62 82 
62 84 
62 86 
62 88 
62 90 
62 91 
62 93 
62 95 
62 97 
62 99 
62 102 
62 103 
62 105 
62 108 
62 109 
62 111 
62 113 
62 116 
62 117 
62 119 
62 122 
62 124 
62 125 
62 128 
63 64 
63 66 
63 68 
63 69 
63 71 
63 73 
63 76 
63 77 
63 80 
63 81 
63 84 
63 86 
63 87 
63 89 
63 92 
63 93 
63 96 
63 98 
63 99 
63 101 
63 103 
63 105 
63 108 
63 109 
63 111 
63 113 
63 116 
63 118 
63 120 
63 121 
63 124 
63 126 
63 128 
64 65 
64 67 
64 70 
64 72 
64 74 
64 75 
64 78 
64 79 
64 82 
64 83 
64 85 
64 88 
64 90 
64 91 
64 94 
64 95 
64 97 
64 100 
64 102 
64 104 
64 106 
64 107 
64 110 
64 112 
64 114 
64 115 
64 117 
64 119 
64 122 
64 123 
64 125 
64 127 
65 66 
67 68 
69 70 
71 72 
73 74 
75 76 
77 78 
79 80 
81 82 
83 84 
85 86 
87 88 
89 90 
91 92 
93 94 
95 96 
97 98 
99 100 
101 102 
103 104 
105 106 
107 108 
109 110 
111 112 
113 114 
115 116 
117 118 
119 120 
121 122 
123 124 
125 126 
127 128 
